144
0 24 83 100 139 46 68 48 69 74 
23 51 9 59 82 116 17 81 96 98 
3 123 142 19 111 112 84 61 94 11 
137 64 101 75 58 52 110 80 117 60 
70 14 57 67 103 66 27 109 86 2 
44 36 90 127 37 20 10 38 45 79 
136 8 141 13 140 126 31 22 77 47 
129 135 21 120 72 5 39 56 130 113 
43 6 76 92 91 4 7 119 87 115 
15 65 1 89 97 33 73 41 88 105 
35 114 26 54 121 12 85 42 71 93 
128 138 125 99 34 78 122 50 104 124 
30 49 106 118 133 32 134 131 16 53 
102 55 28 29 63 62 107 132 143 108 
95 40 18 25 
